12 32
1 2 0
1 3 0
1 4 0
1 5 1
1 6 0
1 7 1
1 8 1
1 9 0
1 10 1
1 11 1
1 12 1
2 3 1
2 4 0
2 5 0
2 6 1
2 7 0
2 8 0
2 9 1
2 10 0
2 11 0
2 12 0
3 4 0
3 5 0
3 6 0
3 7 0
3 8 1
3 9 1
3 10 0
3 11 1
3 12 1
4 5 1
4 6 1
4 7 0
4 8 0
4 9 1
4 10 1
4 11 1
4 12 1
5 6 1
5 7 0
5 8 1
5 9 1
5 10 0
5 11 1
5 12 0
6 7 0
6 8 1
6 9 1
6 10 0
6 11 1
6 12 0
7 8 1
7 9 0
7 10 0
7 11 0
7 12 0
8 9 1
8 10 0
8 11 1
8 12 0
9 10 1
9 11 0
9 12 1
10 11 1
10 12 0
11 12 0
